DIMACS_lns/graph-1000-170.col
p edge 1000 1829
e 1 129
e 1 315
e 1 423
e 1 308
e 1 947
e 2 507
e 2 886
e 2 193
e 2 808
e 3 381
e 3 279
e 3 143
e 3 868
e 3 374
e 3 96
e 3 724
e 4 186
e 4 123
e 4 863
e 4 536
e 5 403
e 5 481
e 5 554
e 6 391
e 6 934
e 6 479
e 6 287
e 6 678
e 7 228
e 7 314
e 7 430
e 7 677
e 7 679
e 8 963
e 8 988
e 8 928
e 8 212
e 9 415
e 9 278
e 9 628
e 9 970
e 9 91
e 9 927
e 9 444
e 10 585
e 10 151
e 10 796
e 10 166
e 11 651
e 11 913
e 11 112
e 11 951
e 11 513
e 12 388
e 12 678
e 12 782
e 12 69
e 12 667
e 13 588
e 13 583
e 13 139
e 13 979
e 14 309
e 14 421
e 14 750
e 14 825
e 14 725
e 14 411
e 14 115
e 15 548
e 15 782
e 15 68
e 16 25
e 16 577
e 16 697
e 18 963
e 18 627
e 18 511
e 19 37
e 19 425
e 19 867
e 20 452
e 20 920
e 20 121
e 20 202
e 22 847
e 22 871
e 22 361
e 23 376
e 23 482
e 23 886
e 23 683
e 23 221
e 23 828
e 23 648
e 25 532
e 25 341
e 26 762
e 26 573
e 26 364
e 26 664
e 26 352
e 27 296
e 27 214
e 27 450
e 28 348
e 28 831
e 28 934
e 28 167
e 29 56
e 29 524
e 29 430
e 29 137
e 30 792
e 30 671
e 30 930
e 30 410
e 33 465
e 33 135
e 33 512
e 33 824
e 33 433
e 34 997
e 34 342
e 34 282
e 35 427
e 35 864
e 35 510
e 35 55
e 35 918
e 36 588
e 36 677
e 36 786
e 36 761
e 36 935
e 37 427
e 37 680
e 37 451
e 37 419
e 37 750
e 37 500
e 37 356
e 41 625
e 41 98
e 41 589
e 41 348
e 41 462
e 41 431
e 41 49
e 45 997
e 45 55
e 45 698
e 45 607
e 45 370
e 46 595
e 46 746
e 46 432
e 46 394
e 47 128
e 47 721
e 47 244
e 48 635
e 48 905
e 48 801
e 48 370
e 48 933
e 48 497
e 48 755
e 48 959
e 48 817
e 48 386
e 48 943
e 49 171
e 49 330
e 49 923
e 49 389
e 49 834
e 49 528
e 51 667
e 51 367
e 51 507
e 52 119
e 52 550
e 52 407
e 52 349
e 53 143
e 53 117
e 53 266
e 53 657
e 53 403
e 53 734
e 53 58
e 53 849
e 53 857
e 55 676
e 55 661
e 56 107
e 56 627
e 56 769
e 56 372
e 56 908
e 57 136
e 57 675
e 57 624
e 57 259
e 57 498
e 57 341
e 58 687
e 58 314
e 58 460
e 58 385
e 58 359
e 59 374
e 59 337
e 59 401
e 59 791
e 59 477
e 59 226
e 59 586
e 60 689
e 60 716
e 60 632
e 60 224
e 61 75
e 61 985
e 61 322
e 61 272
e 62 500
e 62 265
e 62 280
e 62 729
e 64 216
e 64 650
e 64 964
e 65 374
e 65 358
e 65 881
e 67 577
e 67 549
e 67 410
e 67 685
e 67 885
e 67 695
e 67 975
e 68 449
e 68 824
e 68 550
e 68 482
e 68 348
e 68 69
e 68 233
e 68 464
e 68 220
e 69 125
e 69 650
e 69 174
e 69 454
e 70 196
e 70 120
e 70 300
e 72 895
e 72 857
e 72 364
e 72 678
e 74 346
e 74 529
e 74 727
e 74 795
e 75 416
e 75 217
e 75 84
e 75 281
e 75 980
e 75 542
e 76 716
e 76 512
e 76 329
e 76 628
e 77 864
e 77 740
e 77 804
e 77 757
e 77 371
e 78 429
e 78 704
e 78 995
e 78 847
e 78 524
e 78 208
e 79 651
e 79 872
e 79 825
e 79 890
e 79 330
e 80 107
e 80 868
e 80 642
e 80 575
e 81 997
e 81 144
e 81 336
e 81 488
e 81 951
e 81 308
e 82 687
e 82 632
e 82 437
e 84 305
e 84 214
e 84 645
e 84 593
e 86 548
e 86 120
e 86 889
e 86 150
e 86 828
e 87 265
e 87 109
e 87 251
e 87 176
e 87 796
e 88 585
e 88 501
e 88 835
e 88 415
e 88 240
e 89 173
e 89 978
e 89 859
e 89 456
e 91 927
e 91 444
e 91 460
e 91 302
e 91 921
e 91 468
e 91 308
e 94 440
e 94 353
e 94 390
e 94 945
e 94 337
e 95 494
e 95 430
e 95 959
e 96 977
e 96 138
e 96 747
e 97 182
e 97 500
e 97 488
e 97 218
e 98 531
e 98 882
e 98 321
e 98 214
e 98 968
e 98 304
e 98 848
e 100 116
e 100 406
e 100 239
e 100 912
e 100 415
e 100 524
e 101 259
e 101 364
e 101 882
e 101 443
e 101 604
e 102 387
e 102 192
e 102 659
e 102 923
e 102 260
e 104 974
e 104 450
e 104 117
e 104 831
e 104 351
e 105 758
e 105 425
e 105 704
e 105 832
e 105 194
e 105 409
e 106 874
e 106 967
e 106 681
e 107 655
e 107 144
e 107 213
e 109 783
e 109 833
e 109 665
e 110 842
e 110 318
e 110 443
e 110 739
e 110 784
e 110 555
e 110 726
e 110 257
e 110 642
e 111 587
e 111 779
e 111 328
e 111 221
e 111 970
e 112 644
e 112 918
e 112 123
e 112 757
e 112 338
e 112 184
e 112 466
e 112 454
e 114 724
e 114 859
e 114 193
e 114 338
e 115 180
e 115 924
e 115 755
e 116 155
e 116 257
e 116 509
e 116 759
e 117 358
e 117 584
e 118 680
e 118 703
e 118 995
e 118 554
e 118 930
e 119 876
e 119 506
e 119 645
e 119 629
e 119 295
e 119 890
e 120 219
e 120 123
e 120 999
e 120 202
e 121 902
e 121 532
e 121 452
e 122 621
e 122 768
e 122 194
e 122 207
e 123 168
e 124 994
e 124 613
e 124 262
e 124 864
e 124 147
e 124 970
e 125 297
e 125 833
e 125 392
e 125 407
e 126 857
e 126 586
e 126 700
e 127 971
e 127 309
e 127 947
e 127 808
e 127 475
e 128 653
e 128 894
e 129 1000
e 129 544
e 129 322
e 129 494
e 130 192
e 130 946
e 130 596
e 130 544
e 130 906
e 130 435
e 130 676
e 131 327
e 131 747
e 131 800
e 131 876
e 132 182
e 132 903
e 132 480
e 132 279
e 132 265
e 133 768
e 133 862
e 133 795
e 133 466
e 133 518
e 133 427
e 134 1000
e 134 580
e 134 520
e 134 968
e 135 182
e 135 400
e 136 251
e 136 898
e 136 978
e 137 724
e 137 699
e 137 871
e 137 358
e 137 795
e 137 467
e 138 655
e 138 924
e 138 186
e 138 190
e 139 624
e 139 962
e 139 853
e 139 986
e 141 230
e 141 479
e 141 480
e 141 942
e 143 476
e 143 847
e 143 890
e 143 772
e 143 875
e 143 331
e 143 687
e 143 635
e 144 567
e 144 536
e 144 958
e 144 482
e 146 986
e 146 150
e 146 979
e 146 536
e 146 919
e 146 211
e 147 491
e 147 366
e 147 990
e 147 297
e 148 676
e 148 320
e 148 240
e 148 237
e 148 615
e 148 370
e 149 678
e 149 866
e 149 643
e 150 348
e 150 691
e 151 351
e 151 374
e 151 157
e 151 934
e 153 671
e 153 596
e 153 953
e 153 696
e 153 886
e 155 589
e 155 725
e 155 898
e 155 176
e 155 672
e 155 855
e 156 675
e 156 193
e 156 680
e 157 211
e 157 595
e 157 530
e 157 928
e 157 881
e 158 492
e 158 934
e 158 962
e 159 720
e 159 591
e 159 190
e 159 245
e 160 583
e 160 561
e 160 891
e 160 569
e 160 671
e 161 631
e 161 507
e 161 930
e 163 629
e 163 342
e 163 465
e 163 307
e 163 458
e 164 762
e 164 994
e 164 395
e 165 982
e 165 885
e 165 235
e 165 464
e 165 900
e 165 929
e 166 502
e 166 778
e 166 881
e 167 817
e 167 680
e 167 308
e 167 707
e 168 892
e 168 282
e 168 685
e 168 447
e 170 371
e 170 898
e 170 767
e 170 402
e 170 881
e 170 547
e 171 210
e 171 704
e 171 881
e 171 381
e 172 657
e 172 763
e 172 791
e 172 917
e 173 978
e 173 429
e 173 532
e 174 369
e 174 416
e 174 868
e 174 342
e 175 438
e 175 755
e 175 850
e 176 198
e 176 486
e 177 207
e 177 886
e 177 816
e 177 196
e 177 688
e 178 911
e 178 953
e 178 180
e 178 225
e 179 959
e 179 712
e 179 958
e 180 849
e 180 786
e 180 747
e 180 674
e 181 973
e 181 933
e 181 789
e 181 326
e 182 773
e 182 756
e 182 796
e 182 215
e 184 955
e 184 763
e 184 373
e 184 557
e 184 264
e 185 264
e 185 636
e 185 497
e 185 434
e 186 990
e 186 187
e 186 291
e 186 290
e 186 320
e 187 595
e 187 568
e 188 861
e 188 848
e 188 399
e 189 449
e 189 415
e 189 597
e 189 909
e 189 859
e 189 327
e 190 445
e 190 801
e 190 254
e 190 902
e 190 411
e 190 711
e 190 419
e 191 980
e 191 401
e 191 264
e 192 577
e 192 877
e 192 817
e 193 818
e 193 588
e 193 767
e 194 694
e 194 428
e 194 697
e 196 302
e 196 429
e 196 439
e 198 500
e 198 254
e 198 848
e 198 935
e 198 204
e 199 969
e 199 309
e 199 907
e 199 214
e 200 776
e 200 693
e 200 994
e 200 981
e 201 912
e 201 832
e 201 930
e 202 369
e 202 409
e 202 392
e 202 283
e 202 866
e 202 374
e 203 229
e 203 828
e 203 391
e 204 322
e 204 808
e 204 365
e 204 515
e 204 459
e 207 604
e 207 355
e 208 688
e 208 504
e 208 774
e 208 308
e 208 780
e 209 784
e 209 577
e 209 477
e 209 349
e 209 684
e 210 647
e 210 929
e 210 515
e 210 349
e 211 903
e 211 945
e 211 974
e 211 256
e 211 864
e 211 295
e 211 406
e 212 674
e 212 803
e 212 327
e 212 732
e 213 896
e 213 904
e 213 685
e 213 406
e 213 319
e 214 939
e 214 305
e 214 758
e 215 486
e 215 900
e 215 908
e 215 988
e 215 829
e 216 760
e 216 365
e 216 886
e 216 854
e 216 953
e 217 355
e 217 664
e 217 930
e 217 558
e 217 921
e 218 726
e 218 767
e 218 653
e 218 638
e 219 364
e 219 568
e 219 859
e 220 438
e 220 969
e 221 868
e 221 595
e 224 424
e 224 996
e 225 243
e 225 627
e 225 497
e 226 391
e 226 366
e 226 625
e 226 597
e 226 721
e 228 668
e 228 783
e 228 373
e 228 472
e 229 903
e 229 468
e 229 889
e 229 249
e 230 379
e 230 700
e 233 266
e 233 474
e 233 747
e 235 525
e 235 922
e 235 386
e 235 583
e 235 996
e 236 278
e 236 639
e 236 624
e 237 858
e 237 962
e 237 249
e 237 250
e 239 707
e 239 734
e 239 651
e 239 704
e 239 381
e 240 540
e 240 815
e 240 755
e 240 840
e 240 541
e 240 698
e 242 829
e 242 901
e 242 807
e 243 531
e 243 661
e 243 844
e 244 678
e 244 606
e 245 828
e 245 727
e 245 476
e 245 999
e 246 783
e 246 351
e 246 927
e 246 387
e 249 282
e 249 867
e 249 462
e 250 589
e 250 675
e 250 295
e 251 433
e 251 566
e 253 467
e 253 850
e 253 926
e 254 909
e 254 490
e 254 337
e 254 946
e 254 373
e 255 898
e 255 753
e 255 960
e 256 600
e 256 489
e 256 789
e 257 309
e 257 481
e 257 678
e 257 496
e 257 356
e 258 392
e 258 760
e 258 390
e 258 608
e 259 883
e 259 824
e 259 310
e 259 817
e 260 459
e 260 950
e 261 932
e 261 270
e 261 381
e 261 949
e 261 844
e 261 353
e 262 432
e 262 488
e 262 990
e 262 694
e 262 791
e 262 636
e 262 584
e 264 607
e 264 609
e 264 425
e 265 373
e 265 658
e 266 967
e 267 425
e 267 685
e 267 459
e 270 294
e 270 674
e 270 462
e 270 943
e 271 872
e 271 444
e 271 394
e 271 699
e 272 310
e 272 481
e 273 894
e 273 968
e 273 440
e 273 474
e 273 591
e 277 402
e 277 907
e 277 373
e 278 541
e 278 508
e 278 784
e 278 372
e 278 900
e 279 636
e 279 491
e 279 590
e 280 955
e 280 732
e 280 885
e 280 297
e 280 584
e 280 487
e 280 381
e 281 795
e 281 886
e 281 551
e 281 380
e 281 335
e 281 780
e 281 907
e 281 451
e 283 471
e 283 566
e 283 793
e 283 430
e 287 844
e 287 863
e 287 495
e 287 942
e 290 899
e 290 390
e 290 495
e 291 369
e 291 905
e 294 737
e 294 903
e 295 437
e 295 520
e 296 721
e 296 862
e 296 995
e 297 747
e 297 385
e 297 861
e 297 299
e 299 528
e 299 874
e 299 431
e 299 455
e 299 485
e 300 627
e 300 953
e 300 695
e 300 475
e 302 665
e 302 900
e 302 855
e 303 536
e 303 440
e 303 791
e 303 454
e 304 703
e 304 912
e 304 923
e 304 846
e 305 615
e 305 318
e 305 988
e 305 530
e 307 704
e 307 930
e 308 390
e 308 310
e 309 393
e 309 672
e 310 933
e 310 703
e 310 541
e 312 322
e 312 747
e 312 518
e 313 688
e 313 707
e 313 774
e 313 687
e 313 477
e 314 650
e 314 491
e 314 669
e 315 999
e 315 753
e 317 530
e 317 659
e 317 516
e 317 587
e 317 608
e 317 327
e 318 540
e 318 927
e 318 449
e 319 573
e 319 674
e 319 424
e 319 635
e 319 909
e 319 761
e 320 458
e 320 959
e 321 978
e 321 695
e 321 730
e 321 885
e 321 583
e 322 855
e 325 727
e 325 801
e 325 522
e 325 570
e 325 979
e 326 716
e 326 636
e 326 428
e 327 414
e 328 561
e 328 407
e 329 341
e 329 995
e 329 898
e 329 993
e 329 388
e 329 881
e 330 680
e 331 435
e 331 455
e 332 671
e 332 711
e 332 442
e 333 407
e 333 853
e 333 389
e 335 455
e 335 982
e 336 997
e 336 405
e 337 580
e 337 689
e 338 626
e 338 989
e 341 391
e 341 414
e 341 375
e 341 380
e 342 716
e 342 593
e 342 430
e 343 586
e 343 888
e 343 759
e 343 874
e 344 694
e 344 703
e 344 409
e 344 553
e 344 721
e 344 922
e 344 675
e 346 557
e 346 394
e 346 424
e 348 490
e 348 742
e 348 587
e 348 773
e 351 618
e 351 751
e 351 639
e 352 534
e 352 531
e 352 456
e 352 579
e 353 671
e 353 689
e 353 664
e 353 626
e 355 814
e 355 609
e 355 781
e 355 920
e 355 434
e 356 573
e 356 943
e 356 711
e 357 492
e 357 624
e 357 647
e 358 499
e 359 394
e 359 778
e 361 982
e 361 960
e 361 453
e 361 862
e 364 555
e 364 592
e 365 552
e 365 489
e 365 575
e 366 668
e 367 689
e 367 379
e 367 426
e 367 580
e 367 981
e 367 882
e 367 690
e 367 658
e 367 614
e 367 512
e 370 825
e 371 673
e 371 919
e 372 840
e 373 387
e 373 523
e 374 628
e 374 553
e 375 578
e 375 725
e 375 746
e 375 950
e 376 647
e 376 597
e 376 918
e 376 666
e 378 737
e 378 924
e 378 729
e 379 628
e 379 597
e 379 917
e 379 908
e 380 399
e 380 814
e 381 846
e 381 921
e 381 882
e 385 565
e 385 656
e 385 849
e 386 528
e 386 525
e 387 511
e 387 753
e 387 406
e 387 990
e 387 928
e 388 557
e 389 942
e 390 779
e 390 473
e 392 673
e 392 405
e 393 402
e 393 520
e 394 527
e 394 982
e 395 433
e 395 937
e 395 969
e 396 831
e 396 946
e 396 445
e 396 676
e 399 648
e 399 911
e 399 598
e 399 481
e 400 606
e 400 500
e 400 666
e 401 608
e 402 519
e 402 642
e 402 761
e 403 760
e 405 632
e 405 548
e 405 554
e 406 898
e 407 739
e 407 429
e 408 760
e 408 747
e 408 807
e 408 681
e 408 917
e 408 977
e 409 962
e 409 994
e 409 495
e 409 632
e 409 896
e 410 699
e 410 988
e 411 522
e 411 546
e 411 780
e 411 934
e 411 736
e 414 547
e 414 849
e 414 433
e 415 781
e 415 760
e 415 813
e 416 665
e 416 691
e 419 901
e 419 957
e 421 736
e 421 617
e 421 628
e 423 522
e 423 937
e 424 444
e 425 504
e 425 756
e 426 964
e 426 707
e 426 506
e 426 666
e 427 745
e 427 665
e 428 484
e 428 703
e 428 725
e 428 974
e 430 982
e 431 875
e 432 436
e 432 529
e 432 894
e 432 955
e 433 514
e 434 707
e 435 552
e 436 499
e 436 999
e 436 630
e 437 557
e 437 835
e 437 968
e 438 786
e 438 816
e 438 490
e 438 761
e 438 776
e 439 453
e 439 456
e 440 494
e 440 442
e 440 862
e 440 917
e 442 781
e 442 601
e 443 902
e 443 892
e 445 762
e 447 985
e 447 736
e 449 450
e 450 986
e 450 835
e 451 750
e 451 957
e 451 890
e 451 501
e 452 945
e 452 949
e 453 519
e 454 946
e 455 942
e 455 510
e 455 916
e 456 626
e 458 755
e 459 953
e 460 975
e 460 742
e 462 911
e 462 896
e 462 825
e 463 725
e 463 730
e 463 861
e 464 739
e 464 764
e 464 514
e 464 531
e 464 696
e 464 867
e 465 877
e 466 506
e 467 720
e 467 882
e 468 624
e 468 932
e 468 848
e 471 656
e 471 515
e 471 997
e 472 923
e 472 542
e 472 964
e 472 555
e 473 843
e 473 906
e 474 901
e 474 911
e 475 1000
e 475 796
e 476 579
e 476 589
e 477 529
e 479 935
e 479 615
e 479 882
e 480 889
e 480 668
e 480 763
e 481 962
e 481 693
e 481 644
e 482 971
e 484 687
e 484 727
e 485 979
e 485 566
e 486 800
e 486 545
e 487 557
e 487 729
e 487 666
e 488 721
e 488 657
e 488 829
e 489 515
e 489 504
e 489 549
e 490 980
e 490 854
e 490 606
e 491 721
e 492 655
e 492 793
e 494 870
e 494 898
e 495 828
e 495 939
e 495 904
e 496 654
e 496 557
e 497 628
e 497 611
e 497 643
e 497 999
e 498 951
e 498 724
e 498 939
e 499 601
e 500 700
e 500 615
e 500 778
e 500 536
e 501 905
e 502 703
e 502 789
e 502 761
e 504 753
e 506 847
e 506 591
e 506 690
e 507 950
e 507 696
e 507 767
e 508 932
e 508 513
e 509 513
e 509 621
e 509 773
e 510 600
e 510 520
e 511 593
e 511 764
e 512 764
e 512 853
e 512 626
e 513 948
e 514 832
e 514 584
e 514 627
e 514 918
e 514 655
e 515 657
e 516 927
e 516 913
e 518 872
e 518 565
e 519 963
e 519 584
e 519 858
e 519 831
e 522 611
e 522 627
e 523 577
e 523 942
e 523 610
e 525 908
e 525 996
e 525 601
e 527 813
e 527 648
e 529 942
e 529 948
e 529 635
e 529 740
e 529 964
e 530 905
e 530 921
e 531 650
e 531 890
e 531 648
e 532 740
e 532 988
e 534 595
e 534 657
e 536 923
e 540 580
e 541 913
e 541 565
e 542 587
e 544 616
e 544 573
e 545 630
e 545 846
e 546 780
e 546 578
e 547 687
e 547 565
e 547 905
e 547 927
e 548 945
e 549 900
e 550 795
e 551 922
e 551 560
e 551 673
e 552 850
e 552 601
e 552 842
e 553 972
e 553 804
e 554 698
e 554 807
e 555 782
e 555 978
e 555 668
e 555 942
e 558 875
e 558 737
e 558 995
e 559 832
e 559 712
e 559 637
e 559 967
e 560 1000
e 560 849
e 561 567
e 561 638
e 565 977
e 565 889
e 566 590
e 567 648
e 568 895
e 569 759
e 569 949
e 570 610
e 570 664
e 570 989
e 573 937
e 575 840
e 577 636
e 577 963
e 578 810
e 579 624
e 579 617
e 584 1000
e 585 793
e 588 969
e 589 850
e 590 745
e 591 653
e 592 838
e 592 904
e 592 990
e 596 636
e 597 792
e 598 759
e 598 898
e 600 973
e 601 747
e 601 988
e 601 772
e 604 673
e 604 814
e 604 636
e 604 736
e 604 628
e 605 707
e 605 943
e 605 651
e 607 687
e 607 648
e 607 622
e 608 653
e 608 935
e 609 881
e 610 832
e 611 804
e 611 800
e 613 951
e 613 683
e 613 815
e 614 727
e 614 923
e 615 617
e 616 742
e 616 673
e 617 906
e 618 934
e 618 651
e 621 856
e 621 938
e 621 870
e 622 922
e 622 734
e 622 842
e 624 875
e 624 814
e 625 918
e 625 763
e 627 758
e 627 644
e 627 671
e 627 716
e 627 917
e 628 883
e 628 929
e 629 868
e 629 726
e 630 740
e 631 850
e 631 856
e 631 974
e 632 693
e 632 853
e 636 1000
e 636 695
e 636 856
e 637 712
e 637 921
e 638 768
e 638 870
e 638 950
e 638 903
e 639 945
e 639 659
e 643 783
e 644 859
e 645 725
e 647 725
e 648 808
e 650 926
e 653 846
e 654 870
e 654 877
e 654 862
e 655 679
e 655 780
e 656 690
e 656 920
e 657 959
e 657 883
e 658 843
e 658 669
e 659 891
e 661 995
e 661 818
e 665 813
e 665 892
e 666 697
e 666 892
e 666 789
e 667 949
e 668 942
e 669 696
e 671 732
e 672 958
e 672 967
e 673 813
e 676 724
e 676 750
e 676 757
e 677 905
e 677 844
e 677 931
e 677 962
e 678 730
e 678 982
e 678 779
e 679 698
e 681 932
e 683 765
e 684 996
e 684 762
e 685 847
e 687 835
e 688 853
e 689 765
e 690 928
e 691 902
e 691 707
e 694 741
e 695 969
e 696 916
e 697 843
e 698 921
e 698 707
e 699 758
e 699 747
e 700 943
e 700 907
e 703 964
e 704 892
e 716 855
e 720 833
e 720 916
e 724 761
e 724 772
e 725 875
e 725 920
e 726 924
e 726 858
e 727 971
e 727 888
e 729 789
e 729 867
e 730 849
e 732 866
e 734 767
e 737 949
e 737 765
e 740 807
e 741 972
e 741 964
e 745 776
e 745 881
e 745 1000
e 746 939
e 746 804
e 746 903
e 751 810
e 751 909
e 751 964
e 753 923
e 755 990
e 755 947
e 755 935
e 756 783
e 758 963
e 761 762
e 761 765
e 762 929
e 762 858
e 763 964
e 764 888
e 765 985
e 765 900
e 765 786
e 767 768
e 768 838
e 769 986
e 769 824
e 774 918
e 776 888
e 776 885
e 776 814
e 776 982
e 779 994
e 786 890
e 789 938
e 791 876
e 792 938
e 792 980
e 795 894
e 795 963
e 795 857
e 796 964
e 796 973
e 800 834
e 800 900
e 800 903
e 800 815
e 801 989
e 803 921
e 803 810
e 804 862
e 807 906
e 807 880
e 814 857
e 815 891
e 816 857
e 818 902
e 825 907
e 825 917
e 831 883
e 833 881
e 834 848
e 838 960
e 842 864
e 846 931
e 846 899
e 847 932
e 854 896
e 855 948
e 856 933
e 859 934
e 861 920
e 863 972
e 864 924
e 867 953
e 867 929
e 867 911
e 868 895
e 868 979
e 868 999
e 870 980
e 871 981
e 876 902
e 877 896
e 880 908
e 880 905
e 881 901
e 898 899
e 898 917
e 899 968
e 904 975
e 904 950
e 905 967
e 907 964
e 913 982
e 916 982
e 919 923
e 924 955
e 926 946
e 927 931
e 928 931
e 930 943
e 931 978
e 934 948
e 935 938
e 946 973
e 947 993
e 957 968
e 958 985
e 960 989
e 962 993
e 975 977
